NAME          DCAP_3_4_2_500_SS498
ROWS
 N  OBJ
 L  CON1
 L  CON2
 L  CON3
 L  CON4
 L  CON5
 L  CON6
 L  CON7
 L  CON8
 L  CON9
 L  CON10
 L  CON11
 L  CON12
 E  CON13
 E  CON14
 E  CON15
 E  CON16
 E  CON17
 E  CON18
 E  CON19
 E  CON20
COLUMNS
    x[1,1]    OBJ       6.180167      CON1      1.000000    
    x[1,1]    CON7      -1.000000     CON8      -1.000000   
    x[1,2]    OBJ       5.039546      CON2      1.000000    
    x[1,2]    CON8      -1.000000   
    x[2,1]    OBJ       6.732585      CON3      1.000000    
    x[2,1]    CON9      -1.000000     CON10     -1.000000   
    x[2,2]    OBJ       7.443064      CON4      1.000000    
    x[2,2]    CON10     -1.000000   
    x[3,1]    OBJ       6.563535      CON5      1.000000    
    x[3,1]    CON11     -1.000000     CON12     -1.000000   
    x[3,2]    OBJ       6.054841      CON6      1.000000    
    x[3,2]    CON12     -1.000000   
    MARKER    'MARKER'                'INTORG'
    u[1,1]    OBJ       48.076654     CON1      -1.000000   
    u[1,2]    OBJ       49.466655     CON2      -1.000000   
    u[2,1]    OBJ       49.996186     CON3      -1.000000   
    u[2,2]    OBJ       32.230043     CON4      -1.000000   
    u[3,1]    OBJ       20.066487     CON5      -1.000000   
    u[3,2]    OBJ       27.484319     CON6      -1.000000   
    y[1,1,1]  OBJ       5.020109      CON7      0.564006    
    y[1,1,1]  CON13     1.000000    
    y[1,1,2]  OBJ       7.341479      CON8      0.658682    
    y[1,1,2]  CON14     1.000000    
    y[1,2,1]  OBJ       9.183886      CON7      1.203276    
    y[1,2,1]  CON15     1.000000    
    y[1,2,2]  OBJ       9.305604      CON8      1.481456    
    y[1,2,2]  CON16     1.000000    
    y[1,3,1]  OBJ       6.324053      CON7      1.012959    
    y[1,3,1]  CON17     1.000000    
    y[1,3,2]  OBJ       6.574609      CON8      1.122461    
    y[1,3,2]  CON18     1.000000    
    y[1,4,1]  OBJ       9.992424      CON7      1.124494    
    y[1,4,1]  CON19     1.000000    
    y[1,4,2]  OBJ       6.230013      CON8      0.904263    
    y[1,4,2]  CON20     1.000000    
    y[2,1,1]  OBJ       6.906684      CON9      0.564006    
    y[2,1,1]  CON13     1.000000    
    y[2,1,2]  OBJ       5.866513      CON10     0.658682    
    y[2,1,2]  CON14     1.000000    
    y[2,2,1]  OBJ       8.253659      CON9      1.203276    
    y[2,2,1]  CON15     1.000000    
    y[2,2,2]  OBJ       7.123128      CON10     1.481456    
    y[2,2,2]  CON16     1.000000    
    y[2,3,1]  OBJ       8.707842      CON9      1.012959    
    y[2,3,1]  CON17     1.000000    
    y[2,3,2]  OBJ       7.442594      CON10     1.122461    
    y[2,3,2]  CON18     1.000000    
    y[2,4,1]  OBJ       8.797844      CON9      1.124494    
    y[2,4,1]  CON19     1.000000    
    y[2,4,2]  OBJ       6.032554      CON10     0.904263    
    y[2,4,2]  CON20     1.000000    
    y[3,1,1]  OBJ       5.437048      CON11     0.564006    
    y[3,1,1]  CON13     1.000000    
    y[3,1,2]  OBJ       9.147015      CON12     0.658682    
    y[3,1,2]  CON14     1.000000    
    y[3,2,1]  OBJ       9.658505      CON11     1.203276    
    y[3,2,1]  CON15     1.000000    
    y[3,2,2]  OBJ       7.910156      CON12     1.481456    
    y[3,2,2]  CON16     1.000000    
    y[3,3,1]  OBJ       8.030287      CON11     1.012959    
    y[3,3,1]  CON17     1.000000    
    y[3,3,2]  OBJ       7.652108      CON12     1.122461    
    y[3,3,2]  CON18     1.000000    
    y[3,4,1]  OBJ       7.402689      CON11     1.124494    
    y[3,4,1]  CON19     1.000000    
    y[3,4,2]  OBJ       7.728984      CON12     0.904263    
    y[3,4,2]  CON20     1.000000    
    z[1,1]    OBJ       741.203477    CON13     1.000000    
    z[1,2]    OBJ       885.761684    CON14     1.000000    
    z[2,1]    OBJ       892.345241    CON15     1.000000    
    z[2,2]    OBJ       565.817928    CON16     1.000000    
    z[3,1]    OBJ       832.087222    CON17     1.000000    
    z[3,2]    OBJ       742.154658    CON18     1.000000    
    z[4,1]    OBJ       715.328683    CON19     1.000000    
    z[4,2]    OBJ       993.282508    CON20     1.000000    
    MARKER    'MARKER'                 'INTEND'
RHS
    RHS       CON1      -0.000000     CON2      -0.000000   
    RHS       CON3      -0.000000     CON4      -0.000000   
    RHS       CON5      -0.000000     CON6      -0.000000   
    RHS       CON7      -0.000000     CON8      -0.000000   
    RHS       CON9      -0.000000     CON10     -0.000000   
    RHS       CON11     -0.000000     CON12     -0.000000   
    RHS       CON13     1.000000      CON14     1.000000    
    RHS       CON15     1.000000      CON16     1.000000    
    RHS       CON17     1.000000      CON18     1.000000    
    RHS       CON19     1.000000      CON20     1.000000    
BOUNDS
 BV BOUND     u[1,1]  
 BV BOUND     u[1,2]  
 BV BOUND     u[2,1]  
 BV BOUND     u[2,2]  
 BV BOUND     u[3,1]  
 BV BOUND     u[3,2]  
 BV BOUND     y[1,1,1]
 BV BOUND     y[1,1,2]
 BV BOUND     y[1,2,1]
 BV BOUND     y[1,2,2]
 BV BOUND     y[1,3,1]
 BV BOUND     y[1,3,2]
 BV BOUND     y[1,4,1]
 BV BOUND     y[1,4,2]
 BV BOUND     y[2,1,1]
 BV BOUND     y[2,1,2]
 BV BOUND     y[2,2,1]
 BV BOUND     y[2,2,2]
 BV BOUND     y[2,3,1]
 BV BOUND     y[2,3,2]
 BV BOUND     y[2,4,1]
 BV BOUND     y[2,4,2]
 BV BOUND     y[3,1,1]
 BV BOUND     y[3,1,2]
 BV BOUND     y[3,2,1]
 BV BOUND     y[3,2,2]
 BV BOUND     y[3,3,1]
 BV BOUND     y[3,3,2]
 BV BOUND     y[3,4,1]
 BV BOUND     y[3,4,2]
 BV BOUND     z[1,1]  
 BV BOUND     z[1,2]  
 BV BOUND     z[2,1]  
 BV BOUND     z[2,2]  
 BV BOUND     z[3,1]  
 BV BOUND     z[3,2]  
 BV BOUND     z[4,1]  
 BV BOUND     z[4,2]  
ENDATA
